70 724
1 23 16 47 37 58 50 52 60 9 40 61 39 25 45 46 27 68 3 32 7 2 4 18 42 41 6 53 5 10 51 56 65 64 11 67 48 54 62 33 12 34 21 17 43 44 30 20 14 28 8 26 49 55 19 24 15 57 63 66 22 59 38 31 69 35 70 13 29 36 
